26127
0 1 0 1 1 0 1 1 1 1 0 1 1 0 0 1 1 0 1 1 1 1 0 0 0 1 0 0 1 0 
18 19 21 18 15 12 15 11 18 11 4 19 3 1 19 18 1 20 16 18 18 16 1 21 20 18 18 19 4 15 19 19 4 16 18 6 8 8 16 15 7 9 6 4 8 19 3 21 19 9 21 16 21 16 8 6 11 9 18 25 4 11 7 8 3 11 1 19 6 25 7 12 6 9 1 1 20 20 8 16 20 28 9 25 4 8 6 15 18 7 28 6 25 25 28 3 11 6 28 28 28 15 25 7 4 21 4 16 16 3 19 4 18 12 12 8 28 7 19 8 9 11 28 19 9 16 15 12 9 28 28 21 25 20 1 9 3 3 28 20 12 18 12 11 25 21 16 15 18 25 16 6 1 28 8 11 21 15 3 3 3 11 20 16 1 11 1 4 3 21 1 8 19 8 4 21 28 20 4 20 1 15 21 6 12 8 11 20 28 21 21 21 6 4 7 12 7 15 20 19 
